n_potions = 66;
alchemy = [1, 3, 1, 4, 2, 2, 5, 3, 4, 3, 3, 4, 1, 1, 4, 4, 4, 4, 1, 5, 3, 1, 1, 1, 5, 4, 3, 3, 5, 1, 3, 5, 2, 1, 5, 3, 5, 5, 4, 1, 3, 5, 3, 2, 2, 5, 3, 2, 2, 4, 5, 2, 5, 5, 5, 5, 3, 1, 4, 3, 1, 4, 1, 5, 5, 3];
n_days = 12;
min_potions = 5;
max_potions = 7;
min_alchemists = 5;
max_alchemists = 35;
prereqs = [|7,1
|8,2
|8,6
|11,6
|13,8
|13,11
|14,3
|16,9
|17,10
|17,11
|18,10
|18,11
|19,8
|19,11
|20,9
|21,10
|23,17
|23,18
|24,19
|26,13
|26,23
|30,9
|32,9
|34,17
|35,9
|35,17
|37,20
|37,30
|37,35
|38,33
|39,35
|41,9
|44,16
|45,38
|47,42
|49,30
|49,32
|50,43
|51,33
|53,47
|54,50
|55,43
|55,38
|56,51
|57,39
|57,34
|58,28
|61,48
|61,55
|65,59
|];
